15 4 
6300	6300	6300	6300	
648	455	525	
668	508	700	
252	930	1599	
955	971	1190	
75	664	1113	
599	571	1000	
688	155	290	
300	669	923	
415	29	54	
223	613	812	
948	850	1622	
12	528	1001	
924	525	1015	
26	163	232	
902	769	1436	
